S Cut: 1 3 5 7 9 11 13 14 16 18 20 21 23 24 27 32 34 36 38 40 42 44 46 48 50 51 53 55 59 62 63 64 66 68 69 72 75 77 80 81 83 85 86 88 89 90 94 96 97 98 
T Cut: 0 2 4 6 8 10 12 15 17 19 22 25 26 28 29 30 31 33 35 37 39 41 43 45 47 49 52 54 56 57 58 60 61 65 67 70 71 73 74 76 78 79 82 84 87 91 92 93 95 99 
